10	6	3.35
2 6 1 2 2 7 3 8 4 4 5 9 6 5 2 3 9 6 2
2 4 1 8 2 2 4 2 6 5 1 2 8
2 5 1 4 2 3 4 5 5 6 6 8 2 3 2 5 4
2 2 4 8 6 6 4 1 2 2 8 3 9 5 8
2 1 5 6 5 1 3 2 1 3 9 5 2 6 4
2 6 1 6 2 2 3 4 4 1 5 1 6 3 3 4 9 5 9 6 4
2 2 1 1 6 5 1 5 6
2 2 4 6 6 5 5 1 8 2 2 4 8 5 5 6 5
2 4 1 9 4 2 5 8 6 7 2 4 3 5 6
2 4 1 2 3 8 4 3 5 2 6 1 8 2 5 3 1 4 1 5 9 6 1
